(set-option :produce-models true)
(set-logic QF_UF)
(declare-fun p21() Bool)
(declare-fun p31() Bool)
(declare-fun p25() Bool)
(declare-fun p113() Bool)
(declare-fun p15() Bool)
(declare-fun p110() Bool)
(declare-fun p96() Bool)
(declare-fun p63() Bool)
(declare-fun p99() Bool)
(declare-fun p37() Bool)
(declare-fun p36() Bool)
(declare-fun p4() Bool)
(declare-fun p5() Bool)
(declare-fun p51() Bool)
(declare-fun p89() Bool)
(declare-fun p28() Bool)
(declare-fun p98() Bool)
(declare-fun p100() Bool)
(declare-fun p2() Bool)
(declare-fun p38() Bool)
(declare-fun p27() Bool)
(declare-fun p50() Bool)
(declare-fun p119() Bool)
(declare-fun p10() Bool)
(declare-fun p30() Bool)
(declare-fun p32() Bool)
(declare-fun p77() Bool)
(declare-fun p55() Bool)
(declare-fun p106() Bool)
(declare-fun p64() Bool)
(declare-fun p95() Bool)
(declare-fun p67() Bool)
(declare-fun p111() Bool)
(declare-fun p59() Bool)
(declare-fun p49() Bool)
(declare-fun p41() Bool)
(declare-fun p1() Bool)
(declare-fun p54() Bool)
(declare-fun p57() Bool)
(declare-fun p56() Bool)
(declare-fun p62() Bool)
(declare-fun p11() Bool)
(declare-fun p14() Bool)
(declare-fun p29() Bool)
(declare-fun p103() Bool)
(declare-fun p48() Bool)
(declare-fun p82() Bool)
(declare-fun p35() Bool)
(declare-fun p104() Bool)
(declare-fun p60() Bool)
(declare-fun p91() Bool)
(declare-fun p44() Bool)
(declare-fun p87() Bool)
(declare-fun p58() Bool)
(declare-fun p7() Bool)
(declare-fun p13() Bool)
(declare-fun p39() Bool)
(declare-fun p18() Bool)
(declare-fun p26() Bool)
(declare-fun p0() Bool)
(declare-fun p72() Bool)
(declare-fun p107() Bool)
(declare-fun p93() Bool)
(declare-fun p108() Bool)
(declare-fun p34() Bool)
(declare-fun p114() Bool)
(declare-fun p116() Bool)
(declare-fun p85() Bool)
(declare-fun p94() Bool)
(declare-fun p61() Bool)
(declare-fun p3() Bool)
(declare-fun p118() Bool)
(declare-fun p19() Bool)
(declare-fun p92() Bool)
(declare-fun p81() Bool)
(declare-fun p88() Bool)
(declare-fun p8() Bool)
(declare-fun p97() Bool)
(declare-fun p76() Bool)
(declare-fun p6() Bool)
(declare-fun p70() Bool)
(declare-fun p84() Bool)
(declare-fun p47() Bool)
(declare-fun p79() Bool)
(declare-fun p69() Bool)
(declare-fun p112() Bool)
(declare-fun p101() Bool)
(declare-fun p52() Bool)
(declare-fun p80() Bool)
(declare-fun p90() Bool)
(declare-fun p115() Bool)
(declare-fun p66() Bool)
(declare-fun p24() Bool)
(declare-fun p53() Bool)
(declare-fun p86() Bool)
(declare-fun p109() Bool)
(declare-fun p17() Bool)
(declare-fun p46() Bool)
(declare-fun p65() Bool)
(declare-fun p12() Bool)
(declare-fun p42() Bool)
(declare-fun p73() Bool)
(declare-fun p45() Bool)
(declare-fun p16() Bool)
(declare-fun p9() Bool)
(declare-fun p71() Bool)
(declare-fun p117() Bool)
(declare-fun p102() Bool)
(declare-fun p23() Bool)
(declare-fun p43() Bool)
(declare-fun p75() Bool)
(declare-fun p20() Bool)
(declare-fun p78() Bool)
(declare-fun p105() Bool)
(declare-fun p74() Bool)
(declare-fun p83() Bool)
(declare-fun p40() Bool)
(declare-fun p33() Bool)
(declare-fun p22() Bool)
(declare-fun p68() Bool)
(assert
(and (or p21 p31 p25) (or p113 p15 p110) (or (not p96) (not p63) (not p99)) (or p37 (not p36) (not p4)) (or p5 p51 p4) (or (not p110) (not p89) p28) (or (not p98) p100 p2) (or (not p38) p27 p50) (or p119 p10 p2) (or p30 p32 (not p77)) (or p30 (not p55) (not p106)) (or p63 p64 (not p95)) (or (not p67) (not p111) (not p59)) (or (not p49) (not p41) (not p89)) (or (not p99) (not p1) (not p54)) (or (not p27) (not p57) p96) (or p56 (not p110) p51) (or p21 (not p98) p62) (or (not p54) (not p11) (not p63)) (or p14 p29 p103) (or (not p11) (not p48) (not p82)) (or p35 (not p113) (not p48)) (or p104 (not p99) p60) (or p82 p91 (not p38)) (or (not p44) p87 (not p58)) (or p7 p13 (not p15)) (or (not p39) (not p18) p26) (or p0 (not p111) (not p72)) (or (not p77) p107 (not p93)) (or (not p108) p82 (not p63)) (or p31 p100 p34) (or (not p114) (not p116) p108) (or (not p111) p7 (not p56)) (or p85 (not p94) (not p1)) (or (not p60) p61 (not p3)) (or (not p118) (not p93) p19) (or p50 p92 (not p32)) (or p87 p81 p88) (or p13 p60 p19) (or p13 p93 (not p89)) (or (not p64) (not p8) p111) (or p11 (not p57) (not p64)) (or p39 p63 p62) (or p49 (not p94) (not p113)) (or (not p95) p100 p27) (or p97 p28 (not p48)) (or (not p76) p50 (not p18)) (or (not p6) (not p70) (not p57)) (or p58 p72 (not p84)) (or (not p47) p55 (not p104)) (or p79 p93 (not p69)) (or (not p112) p77 (not p101)) (or p10 p52 (not p80)) (or (not p41) p51 p21) (or p6 (not p90) p29) (or p2 (not p67) p96) (or p14 (not p4) p115) (or p66 (not p24) p64) (or (not p51) p63 p107) (or p119 p76 (not p53)) (or p36 p88 (not p48)) (or (not p119) p18 (not p86)) (or (not p32) p109 (not p19)) (or p17 (not p87) (not p116)) (or p58 (not p46) p15) (or (not p76) (not p1) p65) (or (not p101) (not p77) (not p3)) (or p47 p12 p56) (or (not p118) p21 p42) (or p24 (not p44) p85) (or (not p73) p45 (not p87)) (or (not p29) p10 (not p46)) (or (not p54) p16 (not p32)) (or (not p35) (not p101) p111) (or p9 p84 p110) (or p100 (not p26) (not p8)) (or p116 (not p92) p4) (or (not p71) (not p57) p79) (or (not p24) p31 (not p35)) (or (not p56) p45 (not p103)) (or (not p10) p39 (not p50)) (or (not p60) (not p14) p45) (or p61 p104 (not p3)) (or (not p89) (not p73) p8) (or (not p30) (not p54) (not p72)) (or (not p12) (not p47) (not p96)) (or (not p10) p63 p87) (or (not p1) (not p90) p86) (or p98 p10 (not p69)) (or (not p94) p92 (not p51)) (or (not p63) p8 p117) (or p84 p102 (not p117)) (or p26 p47 (not p73)) (or p72 (not p18) (not p26)) (or (not p82) (not p88) p0) (or (not p86) (not p48) p23) (or p43 (not p89) (not p112)) (or p85 (not p75) p10) (or p58 (not p77) p65) (or (not p15) p45 (not p119)) (or (not p116) p52 p20) (or p69 (not p79) (not p78)) (or (not p80) p9 p105) (or (not p98) (not p44) p67) (or p115 (not p103) p102) (or (not p11) p96 (not p53)) (or (not p41) p67 p86) (or p3 (not p39) p80) (or p7 (not p92) (not p56)) (or (not p105) p76 (not p105)) (or p60 p91 (not p87)) (or p95 (not p0) p14) (or (not p61) (not p112) p2) (or p79 (not p27) (not p65)) (or p11 (not p79) (not p60)) (or p61 p118 (not p18)) (or p2 (not p27) (not p111)) (or (not p58) p0 (not p111)) (or p72 p94 p53) (or p115 (not p70) p50) (or p28 (not p36) p92) (or p16 (not p85) p109) (or (not p78) (not p32) (not p46)) (or (not p27) p38 (not p107)) (or (not p28) (not p3) (not p75)) (or (not p41) (not p95) p65) (or p74 (not p56) (not p60)) (or p117 p108 p112) (or (not p28) p27 (not p114)) (or (not p41) (not p41) (not p81)) (or p101 p96 p112) (or (not p7) p117 (not p36)) (or p17 (not p18) p75) (or (not p98) (not p77) p112) (or (not p24) (not p111) p103) (or p7 p72 (not p62)) (or p92 p119 p15) (or (not p38) (not p93) p56) (or p83 p72 p50) (or p18 p98 p28) (or p35 (not p80) p116) (or (not p1) p25 (not p50)) (or (not p58) p50 (not p63)) (or p93 (not p20) (not p56)) (or p87 p102 (not p8)) (or (not p4) (not p17) (not p8)) (or p46 p40 (not p76)) (or (not p56) p72 (not p80)) (or p82 p23 (not p65)) (or p77 (not p98) (not p51)) (or p100 (not p4) p44) (or (not p115) (not p2) (not p10)) (or (not p111) (not p54) (not p98)) (or (not p44) (not p46) (not p8)) (or (not p29) (not p93) (not p0)) (or p113 p66 (not p29)) (or p109 (not p73) (not p4)) (or (not p8) (not p28) p84) (or (not p34) p106 (not p85)) (or p49 p7 p83) (or p114 p39 p6) (or p55 (not p63) p16) (or (not p27) p89 p28) (or (not p29) (not p39) (not p106)) (or (not p88) (not p94) p26) (or p43 (not p75) (not p87)) (or p27 p64 (not p107)) (or (not p90) (not p59) (not p26)) (or p30 p46 (not p110)) (or p105 (not p18) p107) (or p18 p80 p110) (or p5 p14 (not p97)) (or p45 (not p44) (not p60)) (or (not p12) p52 (not p119)) (or (not p80) (not p1) p66) (or (not p47) p38 (not p99)) (or p44 p85 p47) (or (not p48) p70 p102) (or p114 p85 p119) (or p71 p10 (not p62)) (or p27 (not p101) (not p74)) (or p43 (not p26) p27) (or (not p114) p109 p96) (or p110 (not p34) (not p89)) (or p25 (not p20) p37) (or (not p29) p36 (not p25)) (or (not p24) p50 p97) (or p17 (not p70) p109) (or p74 p29 p54) (or p23 p109 (not p74)) (or (not p16) p64 (not p12)) (or p24 (not p54) (not p28)) (or (not p89) p107 p18) (or p0 (not p57) p116) (or p71 (not p62) p34) (or (not p35) p96 (not p70)) (or (not p53) (not p74) (not p31)) (or p20 p91 (not p6)) (or p95 (not p26) p65) (or p5 p79 p108) (or p51 p54 (not p40)) (or p31 (not p25) p18) (or p19 (not p77) p119) (or (not p97) (not p72) (not p35)) (or p47 p51 p92) (or p87 p66 p20) (or p25 p43 (not p50)) (or p64 p16 p74) (or (not p0) (not p41) p35) (or p71 (not p108) p40) (or p114 p28 p106) (or (not p45) (not p25) p119) (or p64 p82 (not p117)) (or (not p102) (not p19) (not p96)) (or (not p119) (not p99) p52) (or (not p40) (not p58) p108) (or p60 (not p10) p65) (or p119 p99 (not p21)) (or (not p34) (not p90) (not p12)) (or p87 p109 p40) (or (not p54) (not p66) p47) (or p108 (not p111) (not p108)) (or p95 (not p41) (not p96)) (or (not p108) (not p27) (not p0)) (or p5 (not p3) (not p90)) (or (not p35) p114 p89) (or p54 (not p17) p60) (or (not p0) (not p108) p28) (or (not p93) p42 p85) (or (not p73) (not p91) (not p82)) (or p103 p65 (not p30)) (or p20 (not p18) (not p70)) (or p48 (not p101) p64) (or p77 p87 p81) (or (not p10) (not p67) p72) (or p89 p52 p102) (or (not p16) (not p49) (not p96)) (or (not p92) p38 (not p100)) (or p9 p108 (not p76)) (or (not p94) p7 (not p57)) (or (not p103) (not p38) (not p1)) (or p76 (not p56) (not p80)) (or (not p59) p31 (not p23)) (or p94 (not p24) (not p105)) (or p93 (not p73) p72) (or (not p92) (not p33) (not p89)) (or (not p22) p53 (not p21)) (or p93 p14 p54) (or (not p22) (not p53) (not p25)) (or p56 (not p55) p6) (or (not p16) p34 (not p46)) (or (not p16) p100 p82) (or p22 (not p117) (not p81)) (or (not p17) p85 p9) (or (not p75) (not p62) p107) (or (not p90) (not p108) p106) (or p97 (not p57) (not p73)) (or p74 (not p103) p75) (or (not p12) (not p71) p56) (or (not p85) (not p54) (not p16)) (or (not p11) p4 (not p0)) (or p78 (not p118) (not p70)) (or (not p95) (not p16) (not p62)) (or p29 p118 (not p86)) (or p49 (not p62) (not p27)) (or p46 p23 (not p36)) (or (not p98) p0 (not p76)) (or (not p17) (not p45) p46) (or (not p97) p52 (not p59)) (or p81 (not p93) (not p99)) (or p60 (not p17) p19) (or (not p11) p40 p109) (or (not p45) p97 (not p36)) (or p84 (not p117) p83) (or (not p32) p11 p4) (or (not p55) (not p12) (not p14)) (or p111 (not p15) p93) (or p96 (not p0) (not p16)) (or (not p2) (not p44) p63) (or p24 (not p106) p27) (or p41 p119 (not p97)) (or (not p49) p99 (not p65)) (or p62 p7 p41) (or (not p55) p54 (not p30)) (or (not p117) (not p50) (not p73)) (or (not p20) p35 (not p67)) (or p8 (not p45) p82) (or p85 (not p107) (not p118)) (or p75 (not p74) (not p83)) (or p33 p61 (not p87)) (or (not p77) p12 (not p9)) (or (not p32) p106 (not p62)) (or (not p76) (not p114) p3) (or p72 (not p41) p78) (or (not p4) (not p99) (not p53)) (or (not p10) p25 p47) (or (not p41) (not p117) p12) (or p119 (not p55) (not p95)) (or p80 p71 p81) (or (not p5) (not p71) (not p54)) (or (not p105) p78 p27) (or p65 (not p57) (not p86)) (or (not p54) (not p109) p12) (or (not p12) p45 (not p17)) (or (not p45) (not p76) (not p88)) (or p18 p89 (not p62)) (or p95 p116 p4) (or p27 p80 p43) (or p26 (not p0) (not p98)) (or p110 (not p45) p41) (or p17 p78 (not p101)) (or (not p39) p98 (not p47)) (or p50 p54 (not p94)) (or p56 p61 (not p51)) (or (not p55) (not p3) (not p43)) (or (not p40) p88 p33) (or p39 p68 p3) (or (not p23) (not p61) (not p118)) (or p91 (not p74) p0) (or (not p90) (not p86) p1) (or p70 p115 (not p93)) (or (not p101) (not p61) (not p47)) (or p92 (not p100) p59) (or p92 (not p109) p49) (or (not p27) p24 (not p20)) (or (not p113) p119 p24) (or p80 (not p15) (not p46)) (or p41 p118 (not p30)) (or (not p118) (not p111) p7) (or (not p28) p57 (not p61)) (or (not p56) p11 (not p66)) (or p106 p16 p75) (or p9 p99 p67) (or p71 p40 (not p57)) (or p51 p53 (not p83)) (or p21 (not p4) (not p113)) (or p37 (not p109) (not p42)) (or (not p107) p22 p67) (or p10 p46 (not p19)) (or (not p70) p81 (not p43)) (or (not p112) p32 (not p113)) (or (not p113) p27 (not p1)) (or (not p14) p79 p92) (or p76 p2 (not p111)) (or p22 p45 (not p11)) (or p89 p71 (not p70)) (or p88 p59 p22) (or p31 (not p45) p103) (or p33 p32 (not p67)) (or p88 (not p32) (not p15)) (or p118 (not p0) (not p74)) (or p118 (not p55) (not p70)) (or p53 (not p111) p42) (or p2 p110 (not p72)) (or (not p102) p59 (not p58)) (or p85 (not p107) (not p14)) (or p4 p84 p5) (or p54 p92 (not p45)) (or p73 p95 p22) (or p60 (not p80) (not p30)) (or p59 p78 p65) (or p24 p66 (not p92)) (or p29 (not p66) p28) (or (not p91) p113 (not p41)) (or p71 (not p97) p102) (or p17 (not p110) p63) (or p8 p12 (not p51)) (or (not p73) (not p55) (not p26)) (or p87 p15 p69) (or (not p66) p49 p87) (or p5 p117 (not p21)) (or (not p77) (not p42) p4) (or p119 (not p26) (not p56)) (or p31 p102 p92) (or (not p6) (not p33) (not p0)) (or p84 (not p47) (not p118)) (or (not p31) (not p0) (not p52)) (or p103 (not p109) (not p56)) (or (not p93) (not p11) (not p112)) (or p89 (not p114) p84) (or (not p86) p50 p69) (or p34 p6 (not p2)) (or (not p63) p99 p44) (or (not p114) p4 p25) (or p29 p26 (not p6)) (or p75 (not p98) (not p47)) (or (not p30) (not p45) (not p34)) (or p104 p95 p97) (or p116 p88 p75) (or p3 (not p12) p19) (or p18 (not p103) p8) (or p79 (not p13) p115) (or p75 (not p104) (not p29)) (or (not p31) p101 (not p119)) (or (not p68) (not p110) p105) (or (not p108) p56 (not p116)) (or p102 p10 p9) (or (not p10) p85 p45) (or p8 (not p23) p113) (or (not p109) p60 p118) (or p41 (not p30) p38) (or (not p36) (not p38) (not p15)) (or p101 (not p109) (not p94)) (or (not p26) p56 (not p24)) (or p11 (not p90) p113) (or p43 p2 p61) (or p67 (not p11) (not p116)) (or p2 (not p107) p112) (or (not p98) p19 (not p46)) (or p119 p5 p107) (or p41 p111 p84) (or p105 p19 p44) (or (not p82) (not p93) (not p53)) (or (not p56) p6 (not p26)) (or p41 p24 p81) (or (not p117) (not p55) p86) (or (not p67) (not p56) (not p86)) (or p52 p71 (not p46)) (or (not p17) (not p30) (not p23)) (or (not p8) (not p94) p86) (or p38 (not p64) (not p34)) (or (not p29) p4 p70) (or (not p23) p84 p50) (or p40 (not p88) (not p1)) (or (not p99) (not p79) p48) (or p78 p24 (not p91)) (or p113 (not p101) p87) (or p66 p81 p63) (or p19 (not p66) (not p73)) (or (not p37) (not p35) p38) (or p39 p72 (not p49)) (or p93 (not p53) p19) (or p117 (not p38) (not p72)) (or p28 p72 (not p117)) (or (not p22) p73 (not p59)) (or (not p19) p95 p76) (or p71 p86 (not p9)) (or p49 p100 (not p64)) (or p91 p6 p93) (or p36 p91 (not p18)) (or p50 p66 (not p68)) (or (not p53) (not p57) p117) (or (not p73) p74 (not p118)) (or p59 p115 p114) (or p2 (not p46) p22) (or p80 (not p49) p75) (or (not p112) (not p98) (not p110)) (or p50 p78 (not p50)) (or p41 p85 p101) (or (not p74) (not p47) p91) (or p3 p105 (not p54)) (or p25 p75 p24) (or (not p71) p49 p70) (or p102 p87 (not p98)) (or (not p28) p2 (not p53)) (or (not p49) p4 p21) (or p0 (not p89) (not p5)) (or p65 (not p13) p82) (or p95 (not p105) (not p16)) (or p8 p39 p64) (or (not p97) (not p79) (not p16)) (or (not p72) p19 (not p71)) (or p113 p110 p118) (or (not p109) (not p16) (not p37)) (or p64 p11 p103) (or (not p15) (not p13) (not p23)) (or (not p12) (not p63) (not p86)) (or (not p84) (not p82) (not p12)) (or p79 (not p40) p84) (or (not p37) (not p87) p98) (or (not p48) (not p112) p39) (or p60 (not p59) (not p86)) (or p61 (not p74) p3) (or (not p3) p23 p24) (or (not p57) p90 p11) (or (not p11) p6 (not p91)) (or (not p26) p17 p110) (or p109 (not p5) (not p2)) (or p40 p93 (not p103)) (or p116 (not p43) (not p96)) (or (not p4) (not p86) (not p32)) (or (not p57) (not p110) p64) (or p111 (not p100) p74) (or p111 p42 (not p4)) (or p42 p7 p27) (or (not p116) (not p73) p89) (or (not p61) (not p115) p96) (or (not p23) (not p103) p26) (or p108 p33 (not p16)) (or (not p67) p65 p1) (or (not p107) p111 p106) (or (not p90) p31 p73) (or p29 (not p91) (not p59)) (or (not p30) (not p98) (not p76)) (or (not p66) (not p90) (not p109)) (or (not p49) (not p80) p70) (or (not p54) (not p90) (not p0)) (or (not p64) (not p31) (not p63)) (or p66 (not p81) (not p117)) (or (not p63) p37 p116) (or p64 p45 p86) (or (not p35) p95 p103) (or (not p88) p45 (not p45)) (or (not p95) (not p7) p58) (or (not p70) p102 p86) (or (not p40) (not p113) (not p2)) (or (not p116) (not p10) (not p21)) (or p46 p65 p107) (or (not p28) (not p57) p72) (or p67 p85 p107) (or (not p117) (not p30) p111) (or (not p32) (not p12) p76) (or p32 (not p61) (not p2)) (or p52 p74 p19) (or (not p106) p25 (not p95)) (or (not p63) p113 (not p22)) (or (not p27) p14 p53) (or (not p9) (not p38) p10) (or p23 (not p110) (not p101)) (or (not p62) (not p92) p68) (or (not p28) (not p116) (not p46)) (or p33 p80 (not p12)) (or (not p81) (not p107) p48) (or (not p36) (not p92) (not p6)) (or (not p74) (not p106) (not p86)) (or (not p99) p106 p87) (or (not p86) p91 (not p26)) (or (not p60) (not p56) (not p76)) (or p75 (not p14) (not p63)) (or p84 (not p99) (not p67)) (or p61 p21 p59) (or p58 (not p13) p103) (or (not p109) p104 (not p83)) (or p14 (not p33) (not p106)) (or (not p30) (not p104) (not p4)) (or p81 (not p20) p18) (or p88 (not p105) (not p10)) (or p38 p91 (not p54)) (or p79 p109 (not p42)) (or (not p103) (not p0) p46) (or p38 (not p59) p71) (or (not p13) (not p5) (not p65)) (or p11 (not p9) (not p91)) (or p2 (not p52) (not p27)) (or (not p41) p88 p95) (or (not p0) p69 p118) (or p104 (not p109) p65) (or (not p76) p26 (not p66)) (or (not p87) p17 (not p48)) (or (not p26) p91 p79) (or p100 (not p44) (not p41)) (or p106 (not p111) (not p31)) (or p84 p108 p50) (or p14 (not p78) p79) (or p60 p105 (not p119)) (or p75 (not p83) p45) (or (not p44) (not p26) p117) (or (not p66) p49 (not p71)) (or p42 p26 p72) (or (not p28) p102 p2) (or p19 p106 (not p86)) (or p86 (not p100) (not p29)) (or p112 p37 (not p36)) (or p112 p86 (not p114)) (or (not p27) p70 (not p62)) (or p84 p80 p80) (or (not p6) (not p13) p48) (or (not p53) (not p100) p96) (or (not p9) (not p41) (not p82)) (or p73 (not p67) (not p79)) (or p117 (not p25) p61) (or (not p99) p46 (not p23)) (or p100 (not p59) (not p48)) (or p49 p106 p49) (or (not p95) (not p32) (not p79)) (or p85 p22 p47) (or (not p83) (not p106) (not p92)) (or p24 p100 (not p63)) (or (not p116) p29 (not p52)) (or p18 p1 (not p92)) (or p34 (not p117) p72) (or p20 p19 p116) (or p98 p59 (not p47)) (or (not p70) p20 (not p48)) (or (not p64) (not p119) (not p9)) (or p55 p70 (not p6)) (or (not p105) (not p53) p33) (or (not p2) (not p111) p80) (or p80 p29 p67) (or p105 p10 p118) (or p65 p101 (not p68)) (or p91 (not p93) (not p117)) (or p42 p4 (not p59)) (or (not p67) p96 (not p3)) (or p113 p86 p117) (or (not p6) p35 (not p25)) (or (not p69) (not p67) (not p37)) (or (not p48) (not p112) (not p76)) (or (not p69) (not p41) (not p100)))
)
(check-sat)
(get-model)
